20J7M/DAT/20J7MNNL-14.dat
20 7
26.878 26.878
30.1976 30.1976
31.9198 31.9198
17.1137 17.1137
22.4711 22.4711
34.3141 34.3141
23.605 23.605
30.9946 30.9946
22.1437 22.1437
29.3167 29.3167
30.9537 30.9537
27.5895 27.5895
32.2289 32.2289
19.8395 19.8395
21.6929 21.6929
23.5982 23.5982
26.476 26.476
20.9554 20.9554
21.243 21.243
19.2753 19.2753
512.8067