20J7M/SOL/20J7MNNL-14.sol
solution status: optimal solution found
objective value:                     74.9085285714286
x#1#7                                               1 	(obj:0)
x#2#2                                               1 	(obj:0)
x#3#4                                               1 	(obj:0)
x#4#1                               0.609213310590814 	(obj:0)
x#4#2                               0.390786689409186 	(obj:0)
x#5#4                                               1 	(obj:0)
x#6#6                                               1 	(obj:0)
x#7#4                                               1 	(obj:0)
x#8#5                                               1 	(obj:0)
x#9#3                               0.681459868314498 	(obj:0)
x#9#7                               0.318540131685502 	(obj:0)
x#10#1                                              1 	(obj:0)
x#11#7                                              1 	(obj:0)
x#12#5                                              1 	(obj:0)
x#13#2                                              1 	(obj:0)
x#14#2                              0.298835512477001 	(obj:0)
x#14#3                             0.0431709590672376 	(obj:0)
x#14#6                              0.657993528455761 	(obj:0)
x#15#1                             0.0828443105004354 	(obj:0)
x#15#5                              0.917155689499565 	(obj:0)
x#16#3                                              1 	(obj:0)
x#17#3                                              1 	(obj:0)
x#18#6                                              1 	(obj:0)
x#19#1                                              1 	(obj:0)
x#20#1                               0.31832453291109 	(obj:0)
x#20#4                               0.68167546708891 	(obj:0)
z                                    74.9085285714286 	(obj:1)
